48 60
8 5 1
3 8 1
4 5 1
10 8 1
7 3 1
10 9 2
2 7 1
3 4 3
5 9 1
4 2 1
9 1 1
2 4 1
8 3 1
6 3 1
9 4 1
1 9 1
3 1 2
6 1 2
6 10 3
1 4 1
4 3 1
1 7 1
10 3 1
3 10 1
9 8 1
2 3 2
2 8 1
8 8 1
2 2 1
9 2 1
8 4 1
2 6 2
9 5 1
3 6 1
4 7 1
1 2 3
5 1 1
3 7 1
7 2 1
5 3 1
1 5 1
8 6 1
2 5 2
7 9 1
1 1 1
7 1 1
5 8 1
7 7 1
10 10 
10 10 
10 10 
10 10 
10 10 
10 10 
10 10 
10 10 
10 10 
10 10 
10 10 
10 10 
10 10 
10 10 
10 10 
10 10 
10 10 
10 10 
10 10 
10 10 
10 10 
10 10 
10 10 
10 10 
10 10 
10 10 
10 10 
10 10 
10 10 
10 10 
10 10 
10 10 
10 10 
10 10 
10 10 
10 10 
10 10 
10 10 
10 10 
10 10 
10 10 
10 10 
10 10 
10 10 
10 10 
10 10 
10 10 
10 10 
10 10 
10 10 
10 10 
10 10 
10 10 
10 10 
10 10 
10 10 
10 10 
10 10 
10 10 
10 10 
